90 4 116 126 10 41 65 52 174 168 192 15 114 44 66 73 59 155 55 185 125 49 195 16 51 78 37 67 149 87 119 62 76 167 184 109 130 6 137 96 29 173 139 35 39 103 124 64 5 118 146 91 104 180 84 188 97 42 108 34 21 17 82 26 25 27 88 54 151 110 18 152 75 197 198 30 182 33 32 115 72 48 106 145 191 9 105 80 53 176 177 99 86 148 23 163 131 101 175 132 117 123 140 20 147 71 43 113 12 179 172 60 28 89 162 8 144 121 85 129 1 94 120 186 181 164 68 102 111 56 159 63 38 189 142 83 22 133 77 187 50 169 143 135 11 58 36 112 136 70 74 158 69 165 40 57 61 79 122 7 170 107 138 2 153 127 171 150 31 157 199 190 98 161 95 196 93 194 100 19 46 0 14 128 47 3 154 24 160 134 178 156 166 92 183 193 13 141 45 81 

